\Problem name: ilog.cplex

Minimize
 obj: 508.676183913475 Route_1_(4_9_10_12_11_2)
      + 50.8676183913475 Route_2_(4_9_11_2)
      + 57.3532344012524 Route_3_(4_9_10_12_3)
      + 573.532344012524 Route_4_(4_9_11_12_3)
      + 29.2526931262521 Route_5_(4_9_10_5)
      + 56.9985676373034 Route_6_(5_10_12_11_2)
      + 569.985676373034 Route_7_(5_10_9_11_2)
      + 48.1358472726277 Route_8_(5_10_12_3)
      + 481.358472726277 Route_9_(5_10_9_11_12_3)
      + 30.0454201058042 Route_10_(5_10_9_4)
      + 20.0225375902018 Route_11_(6_7_1)
      + 708.919880021969 Route_12_(6_7_9_10_12_11_2)
      + 70.8919880021969 Route_13_(6_7_9_11_2)
      + 708.919880021969 Route_14_(6_8_10_12_11_2)
      + 708.919880021969 Route_15_(6_8_10_9_10_12_11_2)
      + 708.919880021969 Route_16_(6_8_10_9_11_2)
      + 681.480237388176 Route_17_(6_5_10_12_3)
      + 681.480237388176 Route_18_(6_7_9_10_12_3)
      + 68.1480237388176 Route_19_(6_8_10_12_3)
      + 681.480237388176 Route_20_(6_8_10_5_10_12_3)
      + 681.480237388176 Route_21_(6_8_10_9_10_12_3)
      + 400.463911409177 Route_22_(6_5_10_9_4)
      + 40.0463911409177 Route_23_(6_7_9_4)
      + 400.463911409177 Route_24_(6_8_10_5_10_9_4)
      + 400.463911409177 Route_25_(6_8_10_9_4)
      + 40.0466054552421 Route_26_(6_5)
      + 400.466054552421 Route_27_(6_7_9_10_5)
      + 400.466054552421 Route_28_(6_8_10_5)
Subject To
 Positiveness_Route_22_(6_5_10_9_4): Route_22_(6_5_10_9_4) >= 0
 Positiveness_Route_23_(6_7_9_4): Route_23_(6_7_9_4) >= 0
 Positiveness_Route_24_(6_8_10_5_10_9_4): Route_24_(6_8_10_5_10_9_4) >= 0
 Positiveness_Route_25_(6_8_10_9_4): Route_25_(6_8_10_9_4) >= 0
 Positiveness_Route_8_(5_10_12_3): Route_8_(5_10_12_3) >= 0
 Positiveness_Route_9_(5_10_9_11_12_3): Route_9_(5_10_9_11_12_3) >= 0
 Positiveness_Route_17_(6_5_10_12_3): Route_17_(6_5_10_12_3) >= 0
 Positiveness_Route_18_(6_7_9_10_12_3): Route_18_(6_7_9_10_12_3) >= 0
 Positiveness_Route_19_(6_8_10_12_3): Route_19_(6_8_10_12_3) >= 0
 Positiveness_Route_20_(6_8_10_5_10_12_3): Route_20_(6_8_10_5_10_12_3) >= 0
 Positiveness_Route_21_(6_8_10_9_10_12_3): Route_21_(6_8_10_9_10_12_3) >= 0
 Positiveness_Route_12_(6_7_9_10_12_11_2): Route_12_(6_7_9_10_12_11_2) >= 0
 Positiveness_Route_13_(6_7_9_11_2): Route_13_(6_7_9_11_2) >= 0
 Positiveness_Route_14_(6_8_10_12_11_2): Route_14_(6_8_10_12_11_2) >= 0
 Positiveness_Route_15_(6_8_10_9_10_12_11_2): Route_15_(6_8_10_9_10_12_11_2)
                                 >= 0
 Positiveness_Route_16_(6_8_10_9_11_2): Route_16_(6_8_10_9_11_2) >= 0
 Positiveness_Route_6_(5_10_12_11_2): Route_6_(5_10_12_11_2) >= 0
 Positiveness_Route_7_(5_10_9_11_2): Route_7_(5_10_9_11_2) >= 0
 Positiveness_Route_26_(6_5):    Route_26_(6_5) >= 0
 Positiveness_Route_27_(6_7_9_10_5): Route_27_(6_7_9_10_5) >= 0
 Positiveness_Route_28_(6_8_10_5): Route_28_(6_8_10_5) >= 0
 Positiveness_Route_1_(4_9_10_12_11_2): Route_1_(4_9_10_12_11_2) >= 0
 Positiveness_Route_2_(4_9_11_2): Route_2_(4_9_11_2) >= 0
 Positiveness_Route_10_(5_10_9_4): Route_10_(5_10_9_4) >= 0
 Positiveness_Route_5_(4_9_10_5): Route_5_(4_9_10_5) >= 0
 Positiveness_Route_11_(6_7_1):  Route_11_(6_7_1) >= 0
 Positiveness_Route_3_(4_9_10_12_3): Route_3_(4_9_10_12_3) >= 0
 Positiveness_Route_4_(4_9_11_12_3): Route_4_(4_9_11_12_3) >= 0
 OD_6_4:                         Route_22_(6_5_10_9_4) >= 2419.2
 OD_6_3:                         Route_17_(6_5_10_12_3) >= 0
 OD_6_2:                         Route_12_(6_7_9_10_12_11_2) >= 3024
 OD_6_5:                         Route_27_(6_7_9_10_5) >= 726
 OD_4_5:                         Route_5_(4_9_10_5) >= 1330.8
 OD_6_1:                         Route_11_(6_7_1) >= 604.8
 OD_4_2:                         Route_1_(4_9_10_12_11_2) >= 967.2
 OD_4_3:                         Route_4_(4_9_11_12_3) >= 604.8
 OD_5_4:                         Route_10_(5_10_9_4) >= 0
 OD_5_3:                         Route_9_(5_10_9_11_12_3) >= 604.8
 OD_5_2:                         Route_7_(5_10_9_11_2) >= 1814.4
 Arc_7_1:                        Route_11_(6_7_1) >= 604.8
 Arc_6_7:                        Route_12_(6_7_9_10_12_11_2) >= 3024
 Arc_7_9:                        Route_12_(6_7_9_10_12_11_2) >= 3024
 Arc_6_5:                        Route_17_(6_5_10_12_3) >= 10
 Arc_4_9:                        Route_4_(4_9_11_12_3) >= 604.8
 Arc_8_10:                       Route_14_(6_8_10_12_11_2) >= 550
 Arc_9_4:                        Route_22_(6_5_10_9_4) >= 2419.2
 Arc_6_8:                        Route_14_(6_8_10_12_11_2) >= 550
 Arc_11_2:                       Route_12_(6_7_9_10_12_11_2) >= 3024
Bounds
 0 <= Route_1_(4_9_10_12_11_2) <= 2147483647
 0 <= Route_2_(4_9_11_2) <= 2147483647
 0 <= Route_3_(4_9_10_12_3) <= 2147483647
 0 <= Route_4_(4_9_11_12_3) <= 2147483647
 0 <= Route_5_(4_9_10_5) <= 2147483647
 0 <= Route_6_(5_10_12_11_2) <= 2147483647
 0 <= Route_7_(5_10_9_11_2) <= 2147483647
 0 <= Route_8_(5_10_12_3) <= 2147483647
 0 <= Route_9_(5_10_9_11_12_3) <= 2147483647
 0 <= Route_10_(5_10_9_4) <= 2147483647
 0 <= Route_11_(6_7_1) <= 2147483647
 0 <= Route_12_(6_7_9_10_12_11_2) <= 2147483647
 0 <= Route_13_(6_7_9_11_2) <= 2147483647
 0 <= Route_14_(6_8_10_12_11_2) <= 2147483647
 0 <= Route_15_(6_8_10_9_10_12_11_2) <= 2147483647
 0 <= Route_16_(6_8_10_9_11_2) <= 2147483647
 0 <= Route_17_(6_5_10_12_3) <= 2147483647
 0 <= Route_18_(6_7_9_10_12_3) <= 2147483647
 0 <= Route_19_(6_8_10_12_3) <= 2147483647
 0 <= Route_20_(6_8_10_5_10_12_3) <= 2147483647
 0 <= Route_21_(6_8_10_9_10_12_3) <= 2147483647
 0 <= Route_22_(6_5_10_9_4) <= 2147483647
 0 <= Route_23_(6_7_9_4) <= 2147483647
 0 <= Route_24_(6_8_10_5_10_9_4) <= 2147483647
 0 <= Route_25_(6_8_10_9_4) <= 2147483647
 0 <= Route_26_(6_5) <= 2147483647
 0 <= Route_27_(6_7_9_10_5) <= 2147483647
 0 <= Route_28_(6_8_10_5) <= 2147483647
End
